c description: tiling of 
c generator: CNFgen (0.9.0)
c copyright: (C) 2012-2020 Massimo Lauria <massimo.lauria@uniroma1.it>
c url: https://massimolauria.net/cnfgen
c
p cnf 20 240
-1 -2 0
-1 -3 0
-1 -13 0
-1 -15 0
-1 -19 0
-2 -3 0
-2 -13 0
-2 -15 0
-2 -19 0
-3 -13 0
-3 -15 0
-3 -19 0
-13 -15 0
-13 -19 0
-15 -19 0
1 2 3 13 15 19 0
-1 -2 0
-1 -5 0
-1 -8 0
-1 -15 0
-1 -16 0
-1 -19 0
-2 -5 0
-2 -8 0
-2 -15 0
-2 -16 0
-2 -19 0
-5 -8 0
-5 -15 0
-5 -16 0
-5 -19 0
-8 -15 0
-8 -16 0
-8 -19 0
-15 -16 0
-15 -19 0
-16 -19 0
1 2 5 8 15 16 19 0
-1 -4 0
-1 -8 0
-1 -16 0
-1 -17 0
-4 -8 0
-4 -16 0
-4 -17 0
-8 -16 0
-8 -17 0
-16 -17 0
1 4 8 16 17 0
-1 -5 0
-1 -9 0
-1 -10 0
-1 -11 0
-1 -14 0
-5 -9 0
-5 -10 0
-5 -11 0
-5 -14 0
-9 -10 0
-9 -11 0
-9 -14 0
-10 -11 0
-10 -14 0
-11 -14 0
1 5 9 10 11 14 0
-1 -7 0
-1 -8 0
-1 -12 0
-1 -13 0
-1 -14 0
-1 -16 0
-7 -8 0
-7 -12 0
-7 -13 0
-7 -14 0
-7 -16 0
-8 -12 0
-8 -13 0
-8 -14 0
-8 -16 0
-12 -13 0
-12 -14 0
-12 -16 0
-13 -14 0
-13 -16 0
-14 -16 0
1 7 8 12 13 14 16 0
-1 -7 0
-1 -19 0
-7 -19 0
1 7 19 0
-1 -9 0
-1 -12 0
-1 -19 0
-9 -12 0
-9 -19 0
-12 -19 0
1 9 12 19 0
-2 -5 0
-2 -6 0
-2 -11 0
-2 -18 0
-5 -6 0
-5 -11 0
-5 -18 0
-6 -11 0
-6 -18 0
-11 -18 0
2 5 6 11 18 0
-2 -8 0
-2 -13 0
-2 -18 0
-8 -13 0
-8 -18 0
-13 -18 0
2 8 13 18 0
-3 -11 0
-3 -20 0
-11 -20 0
3 11 20 0
-3 -13 0
-3 -20 0
-13 -20 0
3 13 20 0
-4 -6 0
-4 -9 0
-4 -10 0
-4 -15 0
-4 -18 0
-6 -9 0
-6 -10 0
-6 -15 0
-6 -18 0
-9 -10 0
-9 -15 0
-9 -18 0
-10 -15 0
-10 -18 0
-15 -18 0
4 6 9 10 15 18 0
-4 -6 0
-4 -10 0
-4 -11 0
-4 -16 0
-6 -10 0
-6 -11 0
-6 -16 0
-10 -11 0
-10 -16 0
-11 -16 0
4 6 10 11 16 0
-4 -6 0
-4 -10 0
-4 -14 0
-4 -19 0
-6 -10 0
-6 -14 0
-6 -19 0
-10 -14 0
-10 -19 0
-14 -19 0
4 6 10 14 19 0
-4 -9 0
-4 -11 0
-4 -14 0
-4 -18 0
-4 -20 0
-9 -11 0
-9 -14 0
-9 -18 0
-9 -20 0
-11 -14 0
-11 -18 0
-11 -20 0
-14 -18 0
-14 -20 0
-18 -20 0
4 9 11 14 18 20 0
-5 -6 0
-5 -9 0
-5 -11 0
-5 -12 0
-5 -14 0
-6 -9 0
-6 -11 0
-6 -12 0
-6 -14 0
-9 -11 0
-9 -12 0
-9 -14 0
-11 -12 0
-11 -14 0
-12 -14 0
5 6 9 11 12 14 0
-5 -8 0
-5 -9 0
-5 -14 0
-5 -18 0
-8 -9 0
-8 -14 0
-8 -18 0
-9 -14 0
-9 -18 0
-14 -18 0
5 8 9 14 18 0
-6 -8 0
-6 -13 0
-6 -15 0
-6 -19 0
-8 -13 0
-8 -15 0
-8 -19 0
-13 -15 0
-13 -19 0
-15 -19 0
6 8 13 15 19 0
-7 -8 0
-7 -10 0
-7 -12 0
-7 -13 0
-7 -15 0
-7 -19 0
-8 -10 0
-8 -12 0
-8 -13 0
-8 -15 0
-8 -19 0
-10 -12 0
-10 -13 0
-10 -15 0
-10 -19 0
-12 -13 0
-12 -15 0
-12 -19 0
-13 -15 0
-13 -19 0
-15 -19 0
7 8 10 12 13 15 19 0
-16 -17 0
16 17 0